benchmark/results/graph__10-1000-0.10-02_0/graph__10-1000-0.10-02_0_Quinton_Benders_aux.lp
\ This file has been generated by DOcplex
\ ENCODING=ISO-8859-1
\Problem name: Quinton Benders_auxiliary_sub

Minimize
 obj: 0.000775795190 pi_nr_a0 + 0.001026693665 pi_nr_a1
      + 0.001043841336 pi_nr_a2 + 0.001142862276 pi_nr_a3
      + 0.001411774394 pi_nr_a4 + 0.001160439902 pi_nr_a5
      + 0.001123595506 pi_nr_a6 + 0.001577199354 pi_nr_a7
      + 0.001156105105 pi_nr_a8 + 0.000772797527 pi_nr_a9 + pi_p_a5_a3
      + pi_p_a2_a7 + pi_p_a0_a0 + pi_p_a1_a3 + pi_p_a8_a5 + pi_p_a9_a7
      + pi_p_a8_a8 + pi_p_a9_a4 + pi_p_a2_a8 + pi_p_a2_a9
      + 2587.982382982969 pi_d_a0_a1_proc_0 + 1.001593589783 pi_d_a1_a0_proc_0
      - 0.000000000086 pi_d_a0_a2_proc_0 + 1.000000000086 pi_d_a2_a0_proc_0
      + 1295 pi_d_a0_a3_proc_0 + 2580.313671854953 pi_d_a0_a4_proc_0
      + pi_d_a4_a0_proc_0 + 1293.995970040610 pi_d_a0_a5_proc_0
      + pi_d_a5_a0_proc_0 + pi_d_a6_a0_proc_0 + 0.572292804718 pi_d_a0_a7_proc_0
      + pi_d_a7_a0_proc_0 - 0.383751414777 pi_d_a0_a8_proc_0
      + 2587.642461837308 pi_d_a8_a0_proc_0 + pi_d_a9_a0_proc_0
      + 2587.982871264219 pi_d_a1_a2_proc_0 + 1.001105308533 pi_d_a2_a1_proc_0
      + 1294.999999046326 pi_d_a1_a3_proc_1
      + 2588.983975619078 pi_d_a1_a3_proc_0 + 0.016024380922 pi_d_a3_a1_proc_1
      + 1294.000000953674 pi_d_a3_a1_proc_0 + 8.696779044648 pi_d_a1_a4_proc_1
      + 2588.994427472353 pi_d_a1_a4_proc_0 + 0.005572527647 pi_d_a4_a1_proc_1
      + 2580.303220955352 pi_d_a4_a1_proc_0 + 0.514073454842 pi_d_a1_a5_proc_1
      + 1294.494020068204 pi_d_a1_a5_proc_0
      + 1294.505979931796 pi_d_a5_a1_proc_1
      + 2588.485926545159 pi_d_a5_a1_proc_0
      + 2588.983975543757 pi_d_a1_a6_proc_0 + 0.000001028995 pi_d_a6_a1_proc_0
      + 2588.427507859108 pi_d_a1_a7_proc_1
      + 2588.983777236578 pi_d_a1_a7_proc_0 + 0.016222763422 pi_d_a7_a1_proc_1
      + 0.572492140892 pi_d_a7_a1_proc_0 + 1.771317305347 pi_d_a1_a8_proc_1
      + 2588.014004300630 pi_d_a1_a8_proc_0 + 0.985995699370 pi_d_a8_a1_proc_1
      + 2587.228682694653 pi_d_a8_a1_proc_0
      + 1294.439761079075 pi_d_a1_a9_proc_0
      + 1294.544215493677 pi_d_a9_a1_proc_0 + 1.500000000204 pi_d_a2_a3_proc_0
      + 1293.499999999796 pi_d_a3_a2_proc_0
      + 2581.313671854953 pi_d_a2_a4_proc_0
      + 1294.558394193686 pi_d_a2_a5_proc_0 + 0.437575846924 pi_d_a5_a2_proc_0
      + 1.000000000086 pi_d_a2_a6_proc_0 - 0.000000000086 pi_d_a6_a2_proc_0
      + 1.572292804718 pi_d_a2_a7_proc_0 + 2586.383279339388 pi_d_a2_a8_proc_0
      + 0.875431083143 pi_d_a8_a2_proc_0 + 1.000000000000 pi_d_a2_a9_proc_0
      + 0.000000000000 pi_d_a9_a2_proc_0 + 1294 pi_d_a3_a4_proc_1
      + 2580.313671854953 pi_d_a3_a4_proc_0 + 8.686328145047 pi_d_a4_a3_proc_1
      + 1295 pi_d_a4_a3_proc_0 + 2588 pi_d_a3_a5_proc_1
      + 2587.995970040611 pi_d_a3_a5_proc_0 + 1.004029959390 pi_d_a5_a3_proc_1
      + 1.000000000000 pi_d_a5_a3_proc_0 + 1294 pi_d_a3_a6_proc_0
      + pi_d_a6_a3_proc_0 + 2588 pi_d_a3_a7_proc_1
      + 1294.572292804718 pi_d_a3_a7_proc_0
      + 1294.427707195282 pi_d_a7_a3_proc_1 + pi_d_a7_a3_proc_0
      + 1293.249568916796 pi_d_a3_a8_proc_1
      + 2585.508279339327 pi_d_a3_a8_proc_0 + 3.491720660673 pi_d_a8_a3_proc_1
      + 1295.750431083204 pi_d_a8_a3_proc_0 + 1294 pi_d_a3_a9_proc_0
      + pi_d_a9_a3_proc_0 + 7.690358102285 pi_d_a4_a5_proc_1
      + 1293.999999997849 pi_d_a4_a5_proc_0
      + 1295.000000002152 pi_d_a5_a4_proc_1
      + 2581.309641897715 pi_d_a5_a4_proc_0
      + 2581.305859354953 pi_d_a4_a6_proc_0 + 0.007812500000 pi_d_a6_a4_proc_0
      + 2587.561747009750 pi_d_a4_a7_proc_1
      + 2580.447711669422 pi_d_a4_a7_proc_0 + 8.552288330578 pi_d_a7_a4_proc_1
      + 1.438252990250 pi_d_a7_a4_proc_0 - 0.496593927726 pi_d_a4_a8_proc_1
      + 2578.075788349758 pi_d_a4_a8_proc_0 + 10.924211650242 pi_d_a8_a4_proc_1
      + 2589.496593927726 pi_d_a8_a4_proc_0
      + 2580.313671854953 pi_d_a4_a9_proc_0 + pi_d_a9_a4_proc_0
      + 1294.992063790610 pi_d_a5_a6_proc_0 + 0.003906250000 pi_d_a6_a5_proc_0
      + 2588.431717872620 pi_d_a5_a7_proc_1
      + 1294.999980717948 pi_d_a5_a7_proc_0
      + 1294.000019282052 pi_d_a7_a5_proc_1 + 0.568282127380 pi_d_a7_a5_proc_0
      + 1295.803686264816 pi_d_a5_a8_proc_1
      + 2588.058366727958 pi_d_a5_a8_proc_0 + 0.941633272042 pi_d_a8_a5_proc_1
      + 1293.196313735184 pi_d_a8_a5_proc_0
      + 1294.496458321860 pi_d_a5_a9_proc_0 + 0.499511718750 pi_d_a9_a5_proc_0
      + 0.571984410286 pi_d_a6_a7_proc_0 + 1.000308394432 pi_d_a7_a6_proc_0
      + 2585.758125082507 pi_d_a6_a8_proc_0 + 1.500585340024 pi_d_a8_a6_proc_0
      + pi_d_a9_a6_proc_0 + 1293.402514196961 pi_d_a7_a8_proc_1
      + 1292.233517424210 pi_d_a7_a8_proc_0
      + 1296.766482575791 pi_d_a8_a7_proc_1
      + 1295.597485803039 pi_d_a8_a7_proc_0 + 0.572292804718 pi_d_a7_a9_proc_0
      + pi_d_a9_a7_proc_0 + 2.254618221014 pi_d_a8_a9_proc_0
      + 2585.004092201517 pi_d_a9_a8_proc_0 + pi_y2_a0_proc_0
      + 0.000006191432 pi_y2_a1_proc_0 + 0.999993808568 pi_y2_a1_proc_1
      + pi_y2_a2_proc_0 + 0.500000000000 pi_y2_a3_proc_0
      + 0.500000000000 pi_y2_a3_proc_1 + 0.002969987691 pi_y2_a4_proc_0
      + 0.997030012309 pi_y2_a4_proc_1 + 0.500001557171 pi_y2_a5_proc_0
      + 0.499998442829 pi_y2_a5_proc_1 + pi_y2_a6_proc_0
      + 0.999778866768 pi_y2_a7_proc_0 + 0.000221133232 pi_y2_a7_proc_1
      + 0.000672832140 pi_y2_a8_proc_0 + 0.999327167860 pi_y2_a8_proc_1
      + pi_y2_a9_proc_0
Subject To
 c1: 0.000775795190 pi_nr_a0 + 0.001026694045 pi_nr_a1 + 0.001043841336 pi_nr_a2
     + 0.000992063492 pi_nr_a3 + 0.001412429379 pi_nr_a4
     + 0.001490312966 pi_nr_a5 + 0.001123595506 pi_nr_a6
     + 0.001577287066 pi_nr_a7 + 0.001156069364 pi_nr_a8
     + 0.000772797527 pi_nr_a9 + pi_p_a5_a3 + pi_p_a2_a7 + pi_p_a0_a0
     + pi_p_a1_a3 + pi_p_a8_a5 + pi_p_a9_a7 + pi_p_a8_a8 + pi_p_a9_a4
     + pi_p_a2_a8 + pi_p_a2_a9 + 2588 pi_d_a0_a1_proc_0 + pi_d_a1_a0_proc_0
     + pi_d_a2_a0_proc_0 + 2589 pi_d_a0_a3_proc_0 + 2588 pi_d_a0_a4_proc_0
     + pi_d_a4_a0_proc_0 + pi_d_a5_a0_proc_0 + pi_d_a6_a0_proc_0
     + pi_d_a7_a0_proc_0 - pi_d_a0_a8_proc_0 + 2590 pi_d_a8_a0_proc_0
     + pi_d_a9_a0_proc_0 + 2588 pi_d_a1_a2_proc_0 + pi_d_a2_a1_proc_0
     + pi_d_a1_a3_proc_1 + 2589 pi_d_a1_a3_proc_0 + 2588 pi_d_a3_a1_proc_0
     + pi_d_a1_a4_proc_1 + 2589 pi_d_a1_a4_proc_0 + 2588 pi_d_a4_a1_proc_0
     + pi_d_a1_a5_proc_1 + pi_d_a1_a5_proc_0 + 2588 pi_d_a5_a1_proc_1
     + 2588 pi_d_a5_a1_proc_0 + 2589 pi_d_a1_a6_proc_0 + 2589 pi_d_a1_a7_proc_1
     + 2589 pi_d_a1_a7_proc_0 + 2588 pi_d_a1_a8_proc_0 + pi_d_a8_a1_proc_1
     + 2589 pi_d_a8_a1_proc_0 + pi_d_a1_a9_proc_0 + 2588 pi_d_a9_a1_proc_0
     + 2 pi_d_a2_a3_proc_0 + 2587 pi_d_a3_a2_proc_0 + 2589 pi_d_a2_a4_proc_0
     + pi_d_a2_a5_proc_0 + pi_d_a2_a6_proc_0 + pi_d_a2_a7_proc_0
     + 2588 pi_d_a2_a8_proc_0 + pi_d_a8_a2_proc_0 + pi_d_a2_a9_proc_0
     + 2588 pi_d_a3_a4_proc_0 + pi_d_a4_a3_proc_1 + 2589 pi_d_a4_a3_proc_0
     + 2588 pi_d_a3_a5_proc_1 + 2588 pi_d_a3_a5_proc_0 + pi_d_a5_a3_proc_1
     + pi_d_a5_a3_proc_0 + 2588 pi_d_a3_a6_proc_0 + pi_d_a6_a3_proc_0
     + 2588 pi_d_a3_a7_proc_1 + 2588 pi_d_a3_a7_proc_0 + pi_d_a7_a3_proc_1
     + pi_d_a7_a3_proc_0 - pi_d_a3_a8_proc_1 + 2587 pi_d_a3_a8_proc_0
     + 2 pi_d_a8_a3_proc_1 + 2590 pi_d_a8_a3_proc_0 + 2588 pi_d_a3_a9_proc_0
     + pi_d_a9_a3_proc_0 + 2589 pi_d_a5_a4_proc_1 + 2589 pi_d_a5_a4_proc_0
     + 2589 pi_d_a4_a6_proc_0 + 2588 pi_d_a4_a7_proc_1 + 2588 pi_d_a4_a7_proc_0
     + pi_d_a7_a4_proc_1 + pi_d_a7_a4_proc_0 - pi_d_a4_a8_proc_1
     + 2587 pi_d_a4_a8_proc_0 + 2 pi_d_a8_a4_proc_1 + 2590 pi_d_a8_a4_proc_0
     + 2588 pi_d_a4_a9_proc_0 + pi_d_a9_a4_proc_0 + pi_d_a5_a6_proc_0
     + 2589 pi_d_a5_a7_proc_1 + pi_d_a5_a7_proc_0 + 2588 pi_d_a7_a5_proc_1
     + 2588 pi_d_a5_a8_proc_1 + 2588 pi_d_a5_a8_proc_0 + pi_d_a8_a5_proc_1
     + pi_d_a8_a5_proc_0 + pi_d_a5_a9_proc_0 + pi_d_a7_a6_proc_0
     + 2587 pi_d_a6_a8_proc_0 + 2 pi_d_a8_a6_proc_0 + pi_d_a9_a6_proc_0
     - pi_d_a7_a8_proc_1 - pi_d_a7_a8_proc_0 + 2590 pi_d_a8_a7_proc_1
     + 2590 pi_d_a8_a7_proc_0 + pi_d_a9_a7_proc_0 + 2 pi_d_a8_a9_proc_0
     + 2587 pi_d_a9_a8_proc_0 + pi_y2_a0_proc_0 + pi_y2_a1_proc_1
     + pi_y2_a2_proc_0 + pi_y2_a3_proc_1 + pi_y2_a4_proc_1 + pi_y2_a5_proc_0
     + pi_y2_a6_proc_0 + pi_y2_a7_proc_0 + pi_y2_a8_proc_1 + pi_y2_a9_proc_0 = 
     0.000153988297
 c2: pi_nr_a0 + pi_nr_a1 + pi_nr_a2 + pi_nr_a3 + pi_nr_a4 + pi_nr_a5 + pi_nr_a6
     + pi_nr_a7 + pi_nr_a8 + pi_nr_a9 - pi_y1_a0 - pi_y1_a1 - pi_y1_a2
     - pi_y1_a3 - pi_y1_a4 - pi_y1_a5 - pi_y1_a6 - pi_y1_a7 - pi_y1_a8
     - pi_y1_a9 >= 1
 c3: pi_p_a0_a1 - pi_p_a3_a0 + pi_p_a0_a6 + pi_d_a0_a1_proc_0
     - pi_d_a1_a0_proc_0 + pi_d_a0_a2_proc_0 - pi_d_a2_a0_proc_0
     + pi_d_a0_a3_proc_0 - pi_d_a3_a0_proc_0 + pi_d_a0_a4_proc_0
     - pi_d_a4_a0_proc_0 + pi_d_a0_a5_proc_0 - pi_d_a5_a0_proc_0
     + pi_d_a0_a6_proc_0 - pi_d_a6_a0_proc_0 + pi_d_a0_a7_proc_0
     - pi_d_a7_a0_proc_0 + pi_d_a0_a8_proc_0 - pi_d_a8_a0_proc_0
     + pi_d_a0_a9_proc_0 - pi_d_a9_a0_proc_0 >= 0
 c4: 1289 pi_p_a0_a1 + 1289 pi_p_a0_a6 + 1289 pi_p_a0_a0
     + 1289 pi_d_a0_a1_proc_0 + 1289 pi_d_a0_a2_proc_0 + 1289 pi_d_a0_a3_proc_0
     + 1289 pi_d_a0_a4_proc_0 + 1289 pi_d_a0_a5_proc_0 + 1289 pi_d_a0_a6_proc_0
     + 1289 pi_d_a0_a7_proc_0 + 1289 pi_d_a0_a8_proc_0 + 1289 pi_d_a0_a9_proc_0
     + pi_y1_a0 + pi_y2_a0_proc_0 >= 0
 c5: - pi_p_a0_a1 + pi_p_a1_a2 - pi_p_a4_a1 + pi_p_a1_a3 - pi_d_a0_a1_proc_0
     + pi_d_a1_a0_proc_0 + pi_d_a1_a2_proc_0 - pi_d_a2_a1_proc_0
     + pi_d_a1_a3_proc_1 + pi_d_a1_a3_proc_0 - pi_d_a3_a1_proc_1
     - pi_d_a3_a1_proc_0 + pi_d_a1_a4_proc_1 + pi_d_a1_a4_proc_0
     - pi_d_a4_a1_proc_1 - pi_d_a4_a1_proc_0 + pi_d_a1_a5_proc_1
     + pi_d_a1_a5_proc_0 - pi_d_a5_a1_proc_1 - pi_d_a5_a1_proc_0
     + pi_d_a1_a6_proc_0 - pi_d_a6_a1_proc_0 + pi_d_a1_a7_proc_1
     + pi_d_a1_a7_proc_0 - pi_d_a7_a1_proc_1 - pi_d_a7_a1_proc_0
     + pi_d_a1_a8_proc_1 + pi_d_a1_a8_proc_0 - pi_d_a8_a1_proc_1
     - pi_d_a8_a1_proc_0 + pi_d_a1_a9_proc_0 - pi_d_a9_a1_proc_0 >= 0
 c6: 1036 pi_p_a1_a2 + 1036 pi_p_a1_a3 + 1036 pi_d_a1_a0_proc_0
     + 1036 pi_d_a1_a2_proc_0 + 1036 pi_d_a1_a3_proc_0 + 1036 pi_d_a1_a4_proc_0
     + 1036 pi_d_a1_a5_proc_0 + 1036 pi_d_a1_a6_proc_0 + 1036 pi_d_a1_a7_proc_0
     + 1036 pi_d_a1_a8_proc_0 + 1036 pi_d_a1_a9_proc_0 + pi_y1_a1
     + pi_y2_a1_proc_0 >= 0
 c7: 974 pi_p_a1_a2 + 974 pi_p_a1_a3 + 974 pi_d_a1_a3_proc_1
     + 974 pi_d_a1_a4_proc_1 + 974 pi_d_a1_a5_proc_1 + 974 pi_d_a1_a7_proc_1
     + 974 pi_d_a1_a8_proc_1 + pi_y1_a1 + pi_y2_a1_proc_1 >= 0
 c8: - pi_p_a1_a2 + pi_p_a2_a7 + pi_p_a2_a8 + pi_p_a2_a9 - pi_d_a0_a2_proc_0
     + pi_d_a2_a0_proc_0 - pi_d_a1_a2_proc_0 + pi_d_a2_a1_proc_0
     + pi_d_a2_a3_proc_0 - pi_d_a3_a2_proc_0 + pi_d_a2_a4_proc_0
     - pi_d_a4_a2_proc_0 + pi_d_a2_a5_proc_0 - pi_d_a5_a2_proc_0
     + pi_d_a2_a6_proc_0 - pi_d_a6_a2_proc_0 + pi_d_a2_a7_proc_0
     - pi_d_a7_a2_proc_0 + pi_d_a2_a8_proc_0 - pi_d_a8_a2_proc_0
     + pi_d_a2_a9_proc_0 - pi_d_a9_a2_proc_0 >= 0
 c9: 958 pi_p_a2_a7 + 958 pi_p_a2_a8 + 958 pi_p_a2_a9 + 958 pi_d_a2_a0_proc_0
     + 958 pi_d_a2_a1_proc_0 + 958 pi_d_a2_a3_proc_0 + 958 pi_d_a2_a4_proc_0
     + 958 pi_d_a2_a5_proc_0 + 958 pi_d_a2_a6_proc_0 + 958 pi_d_a2_a7_proc_0
     + 958 pi_d_a2_a8_proc_0 + 958 pi_d_a2_a9_proc_0 + pi_y1_a2
     + pi_y2_a2_proc_0 >= 0
 c10: pi_p_a3_a0 - pi_p_a5_a3 - pi_p_a1_a3 - pi_d_a0_a3_proc_0
      + pi_d_a3_a0_proc_0 - pi_d_a1_a3_proc_1 - pi_d_a1_a3_proc_0
      + pi_d_a3_a1_proc_1 + pi_d_a3_a1_proc_0 - pi_d_a2_a3_proc_0
      + pi_d_a3_a2_proc_0 + pi_d_a3_a4_proc_1 + pi_d_a3_a4_proc_0
      - pi_d_a4_a3_proc_1 - pi_d_a4_a3_proc_0 + pi_d_a3_a5_proc_1
      + pi_d_a3_a5_proc_0 - pi_d_a5_a3_proc_1 - pi_d_a5_a3_proc_0
      + pi_d_a3_a6_proc_0 - pi_d_a6_a3_proc_0 + pi_d_a3_a7_proc_1
      + pi_d_a3_a7_proc_0 - pi_d_a7_a3_proc_1 - pi_d_a7_a3_proc_0
      + pi_d_a3_a8_proc_1 + pi_d_a3_a8_proc_0 - pi_d_a8_a3_proc_1
      - pi_d_a8_a3_proc_0 + pi_d_a3_a9_proc_0 - pi_d_a9_a3_proc_0 >= 0
 c11: 773 pi_p_a3_a0 + 773 pi_d_a3_a0_proc_0 + 773 pi_d_a3_a1_proc_0
      + 773 pi_d_a3_a2_proc_0 + 773 pi_d_a3_a4_proc_0 + 773 pi_d_a3_a5_proc_0
      + 773 pi_d_a3_a6_proc_0 + 773 pi_d_a3_a7_proc_0 + 773 pi_d_a3_a8_proc_0
      + 773 pi_d_a3_a9_proc_0 + pi_y1_a3 + pi_y2_a3_proc_0 >= 0
 c12: 1008 pi_p_a3_a0 + 1008 pi_d_a3_a1_proc_1 + 1008 pi_d_a3_a4_proc_1
      + 1008 pi_d_a3_a5_proc_1 + 1008 pi_d_a3_a7_proc_1 + 1008 pi_d_a3_a8_proc_1
      + pi_y1_a3 + pi_y2_a3_proc_1 >= 0
 c13: pi_p_a4_a1 + pi_p_a4_a9 - pi_p_a9_a4 - pi_p_a7_a4 - pi_d_a0_a4_proc_0
      + pi_d_a4_a0_proc_0 - pi_d_a1_a4_proc_1 - pi_d_a1_a4_proc_0
      + pi_d_a4_a1_proc_1 + pi_d_a4_a1_proc_0 - pi_d_a2_a4_proc_0
      + pi_d_a4_a2_proc_0 - pi_d_a3_a4_proc_1 - pi_d_a3_a4_proc_0
      + pi_d_a4_a3_proc_1 + pi_d_a4_a3_proc_0 + pi_d_a4_a5_proc_1
      + pi_d_a4_a5_proc_0 - pi_d_a5_a4_proc_1 - pi_d_a5_a4_proc_0
      + pi_d_a4_a6_proc_0 - pi_d_a6_a4_proc_0 + pi_d_a4_a7_proc_1
      + pi_d_a4_a7_proc_0 - pi_d_a7_a4_proc_1 - pi_d_a7_a4_proc_0
      + pi_d_a4_a8_proc_1 + pi_d_a4_a8_proc_0 - pi_d_a8_a4_proc_1
      - pi_d_a8_a4_proc_0 + pi_d_a4_a9_proc_0 - pi_d_a9_a4_proc_0 >= 0
 c14: 839 pi_p_a4_a1 + 839 pi_p_a4_a9 + 839 pi_d_a4_a0_proc_0
      + 839 pi_d_a4_a1_proc_0 + 839 pi_d_a4_a2_proc_0 + 839 pi_d_a4_a3_proc_0
      + 839 pi_d_a4_a5_proc_0 + 839 pi_d_a4_a6_proc_0 + 839 pi_d_a4_a7_proc_0
      + 839 pi_d_a4_a8_proc_0 + 839 pi_d_a4_a9_proc_0 + pi_y1_a4
      + pi_y2_a4_proc_0 >= 0
 c15: 708 pi_p_a4_a1 + 708 pi_p_a4_a9 + 708 pi_d_a4_a1_proc_1
      + 708 pi_d_a4_a3_proc_1 + 708 pi_d_a4_a5_proc_1 + 708 pi_d_a4_a7_proc_1
      + 708 pi_d_a4_a8_proc_1 + pi_y1_a4 + pi_y2_a4_proc_1 >= 0
 c16: pi_p_a5_a3 - pi_p_a9_a5 - pi_p_a8_a5 - pi_d_a0_a5_proc_0
      + pi_d_a5_a0_proc_0 - pi_d_a1_a5_proc_1 - pi_d_a1_a5_proc_0
      + pi_d_a5_a1_proc_1 + pi_d_a5_a1_proc_0 - pi_d_a2_a5_proc_0
      + pi_d_a5_a2_proc_0 - pi_d_a3_a5_proc_1 - pi_d_a3_a5_proc_0
      + pi_d_a5_a3_proc_1 + pi_d_a5_a3_proc_0 - pi_d_a4_a5_proc_1
      - pi_d_a4_a5_proc_0 + pi_d_a5_a4_proc_1 + pi_d_a5_a4_proc_0
      + pi_d_a5_a6_proc_0 - pi_d_a6_a5_proc_0 + pi_d_a5_a7_proc_1
      + pi_d_a5_a7_proc_0 - pi_d_a7_a5_proc_1 - pi_d_a7_a5_proc_0
      + pi_d_a5_a8_proc_1 + pi_d_a5_a8_proc_0 - pi_d_a8_a5_proc_1
      - pi_d_a8_a5_proc_0 + pi_d_a5_a9_proc_0 - pi_d_a9_a5_proc_0 >= 0
 c17: 671 pi_p_a5_a3 + 671 pi_d_a5_a0_proc_0 + 671 pi_d_a5_a1_proc_0
      + 671 pi_d_a5_a2_proc_0 + 671 pi_d_a5_a3_proc_0 + 671 pi_d_a5_a4_proc_0
      + 671 pi_d_a5_a6_proc_0 + 671 pi_d_a5_a7_proc_0 + 671 pi_d_a5_a8_proc_0
      + 671 pi_d_a5_a9_proc_0 + pi_y1_a5 + pi_y2_a5_proc_0 >= 0
 c18: 1204 pi_p_a5_a3 + 1204 pi_d_a5_a1_proc_1 + 1204 pi_d_a5_a3_proc_1
      + 1204 pi_d_a5_a4_proc_1 + 1204 pi_d_a5_a7_proc_1 + 1204 pi_d_a5_a8_proc_1
      + pi_y1_a5 + pi_y2_a5_proc_1 >= 0
 c19: - pi_p_a0_a6 + pi_p_a6_a8 + pi_p_a6_a7 - pi_d_a0_a6_proc_0
      + pi_d_a6_a0_proc_0 - pi_d_a1_a6_proc_0 + pi_d_a6_a1_proc_0
      - pi_d_a2_a6_proc_0 + pi_d_a6_a2_proc_0 - pi_d_a3_a6_proc_0
      + pi_d_a6_a3_proc_0 - pi_d_a4_a6_proc_0 + pi_d_a6_a4_proc_0
      - pi_d_a5_a6_proc_0 + pi_d_a6_a5_proc_0 + pi_d_a6_a7_proc_0
      - pi_d_a7_a6_proc_0 + pi_d_a6_a8_proc_0 - pi_d_a8_a6_proc_0
      + pi_d_a6_a9_proc_0 - pi_d_a9_a6_proc_0 >= 0
 c20: 890 pi_p_a6_a8 + 890 pi_p_a6_a7 + 890 pi_d_a6_a0_proc_0
      + 890 pi_d_a6_a1_proc_0 + 890 pi_d_a6_a2_proc_0 + 890 pi_d_a6_a3_proc_0
      + 890 pi_d_a6_a4_proc_0 + 890 pi_d_a6_a5_proc_0 + 890 pi_d_a6_a7_proc_0
      + 890 pi_d_a6_a8_proc_0 + 890 pi_d_a6_a9_proc_0 + pi_y1_a6
      + pi_y2_a6_proc_0 >= 0
 c21: - pi_p_a2_a7 - pi_p_a9_a7 + pi_p_a7_a9 - pi_p_a6_a7 + pi_p_a7_a4
      - pi_d_a0_a7_proc_0 + pi_d_a7_a0_proc_0 - pi_d_a1_a7_proc_1
      - pi_d_a1_a7_proc_0 + pi_d_a7_a1_proc_1 + pi_d_a7_a1_proc_0
      - pi_d_a2_a7_proc_0 + pi_d_a7_a2_proc_0 - pi_d_a3_a7_proc_1
      - pi_d_a3_a7_proc_0 + pi_d_a7_a3_proc_1 + pi_d_a7_a3_proc_0
      - pi_d_a4_a7_proc_1 - pi_d_a4_a7_proc_0 + pi_d_a7_a4_proc_1
      + pi_d_a7_a4_proc_0 - pi_d_a5_a7_proc_1 - pi_d_a5_a7_proc_0
      + pi_d_a7_a5_proc_1 + pi_d_a7_a5_proc_0 - pi_d_a6_a7_proc_0
      + pi_d_a7_a6_proc_0 + pi_d_a7_a8_proc_1 + pi_d_a7_a8_proc_0
      - pi_d_a8_a7_proc_1 - pi_d_a8_a7_proc_0 + pi_d_a7_a9_proc_0
      - pi_d_a9_a7_proc_0 >= 0
 c22: 634 pi_p_a7_a9 + 634 pi_p_a7_a4 + 634 pi_d_a7_a0_proc_0
      + 634 pi_d_a7_a1_proc_0 + 634 pi_d_a7_a2_proc_0 + 634 pi_d_a7_a3_proc_0
      + 634 pi_d_a7_a4_proc_0 + 634 pi_d_a7_a5_proc_0 + 634 pi_d_a7_a6_proc_0
      + 634 pi_d_a7_a8_proc_0 + 634 pi_d_a7_a9_proc_0 + pi_y1_a7
      + pi_y2_a7_proc_0 >= 0
 c23: 847 pi_p_a7_a9 + 847 pi_p_a7_a4 + 847 pi_d_a7_a1_proc_1
      + 847 pi_d_a7_a3_proc_1 + 847 pi_d_a7_a4_proc_1 + 847 pi_d_a7_a5_proc_1
      + 847 pi_d_a7_a8_proc_1 + pi_y1_a7 + pi_y2_a7_proc_1 >= 0
 c24: - pi_p_a6_a8 + pi_p_a8_a5 - pi_p_a2_a8 - pi_d_a0_a8_proc_0
      + pi_d_a8_a0_proc_0 - pi_d_a1_a8_proc_1 - pi_d_a1_a8_proc_0
      + pi_d_a8_a1_proc_1 + pi_d_a8_a1_proc_0 - pi_d_a2_a8_proc_0
      + pi_d_a8_a2_proc_0 - pi_d_a3_a8_proc_1 - pi_d_a3_a8_proc_0
      + pi_d_a8_a3_proc_1 + pi_d_a8_a3_proc_0 - pi_d_a4_a8_proc_1
      - pi_d_a4_a8_proc_0 + pi_d_a8_a4_proc_1 + pi_d_a8_a4_proc_0
      - pi_d_a5_a8_proc_1 - pi_d_a5_a8_proc_0 + pi_d_a8_a5_proc_1
      + pi_d_a8_a5_proc_0 - pi_d_a6_a8_proc_0 + pi_d_a8_a6_proc_0
      - pi_d_a7_a8_proc_1 - pi_d_a7_a8_proc_0 + pi_d_a8_a7_proc_1
      + pi_d_a8_a7_proc_0 + pi_d_a8_a9_proc_0 - pi_d_a9_a8_proc_0 >= 0
 c25: 827 pi_p_a8_a5 + 827 pi_p_a8_a8 + 827 pi_d_a8_a0_proc_0
      + 827 pi_d_a8_a1_proc_0 + 827 pi_d_a8_a2_proc_0 + 827 pi_d_a8_a3_proc_0
      + 827 pi_d_a8_a4_proc_0 + 827 pi_d_a8_a5_proc_0 + 827 pi_d_a8_a6_proc_0
      + 827 pi_d_a8_a7_proc_0 + 827 pi_d_a8_a9_proc_0 + pi_y1_a8
      + pi_y2_a8_proc_0 >= 0
 c26: 865 pi_p_a8_a5 + 865 pi_p_a8_a8 + 865 pi_d_a8_a1_proc_1
      + 865 pi_d_a8_a3_proc_1 + 865 pi_d_a8_a4_proc_1 + 865 pi_d_a8_a5_proc_1
      + 865 pi_d_a8_a7_proc_1 + pi_y1_a8 + pi_y2_a8_proc_1 >= 0
 c27: pi_p_a9_a5 - pi_p_a4_a9 + pi_p_a9_a7 + pi_p_a9_a4 - pi_p_a7_a9
      - pi_p_a2_a9 - pi_d_a0_a9_proc_0 + pi_d_a9_a0_proc_0 - pi_d_a1_a9_proc_0
      + pi_d_a9_a1_proc_0 - pi_d_a2_a9_proc_0 + pi_d_a9_a2_proc_0
      - pi_d_a3_a9_proc_0 + pi_d_a9_a3_proc_0 - pi_d_a4_a9_proc_0
      + pi_d_a9_a4_proc_0 - pi_d_a5_a9_proc_0 + pi_d_a9_a5_proc_0
      - pi_d_a6_a9_proc_0 + pi_d_a9_a6_proc_0 - pi_d_a7_a9_proc_0
      + pi_d_a9_a7_proc_0 - pi_d_a8_a9_proc_0 + pi_d_a9_a8_proc_0 >= 0
 c28: 1294 pi_p_a9_a5 + 1294 pi_p_a9_a7 + 1294 pi_p_a9_a4
      + 1294 pi_d_a9_a0_proc_0 + 1294 pi_d_a9_a1_proc_0 + 1294 pi_d_a9_a2_proc_0
      + 1294 pi_d_a9_a3_proc_0 + 1294 pi_d_a9_a4_proc_0 + 1294 pi_d_a9_a5_proc_0
      + 1294 pi_d_a9_a6_proc_0 + 1294 pi_d_a9_a7_proc_0 + 1294 pi_d_a9_a8_proc_0
      + pi_y1_a9 + pi_y2_a9_proc_0 >= 0

Bounds
       pi_y1_a0 Free
       pi_y1_a1 Free
       pi_y1_a2 Free
       pi_y1_a3 Free
       pi_y1_a4 Free
       pi_y1_a5 Free
       pi_y1_a6 Free
       pi_y1_a7 Free
       pi_y1_a8 Free
       pi_y1_a9 Free
End
