benchmark/results/graph__10-1000-0.10-02_0/graph__10-1000-0.10-02_0_Quinton_Benders_aux.txt
solution for: Quinton Benders_auxiliary_sub
objective: 0.0182476
status: OPTIMAL_SOLUTION(2)
pi_p_a3_a0=0.000
pi_p_a5_a3=0.000
pi_p_a9_a5=0.000
pi_p_a4_a9=0.000
pi_p_a6_a7=0.000
pi_p_a7_a4=0.000
pi_d_a0_a6_proc_0=0.000
pi_d_a5_a3_proc_0=0.000
pi_y1_a0=-0.198
pi_y1_a3=-0.155
pi_y1_a4=-0.109
pi_y1_a5=-0.103
pi_y1_a6=-0.137
pi_y1_a7=-0.098
pi_y1_a9=-0.199
pi_y2_a3_proc_0=0.036
